23
1 0 2
2 0 22
2 1 13
3 0 23
3 1 57
3 2 17
4 0 9
4 1 50
4 2 20
4 3 15
5 0 25
5 1 35
5 2 24
5 3 26
5 4 41
6 0 5
6 1 17
6 2 46
6 3 24
6 4 45
6 5 58
7 0 56
7 1 20
7 2 10
7 3 53
7 4 23
7 5 11
7 6 42
8 0 30
8 1 12
8 2 21
8 3 49
8 4 19
8 5 58
8 6 12
8 7 45
9 0 53
9 1 23
9 2 7
9 3 52
9 4 2
9 5 28
9 6 26
9 7 47
9 8 15
10 0 53
10 1 2
10 2 24
10 3 3
10 4 36
10 5 50
10 6 29
10 7 36
10 8 28
10 9 8
11 0 41
11 1 19
11 2 4
11 3 40
11 4 11
11 5 30
11 6 39
11 7 44
11 8 47
11 9 46
11 10 56
12 0 9
12 1 2
12 2 20
12 3 10
12 4 48
12 5 44
12 6 43
12 7 28
12 8 55
12 9 44
12 10 16
12 11 16
13 0 16
13 1 29
13 2 50
13 3 1
13 4 12
13 5 29
13 6 3
13 7 20
13 8 3
13 9 23
13 10 34
13 11 24
13 12 13
14 0 31
14 1 30
14 2 27
14 3 18
14 4 39
14 5 7
14 6 38
14 7 34
14 8 3
14 9 46
14 10 52
14 11 3
14 12 7
14 13 44
15 0 45
15 1 12
15 2 29
15 3 18
15 4 47
15 5 7
15 6 54
15 7 54
15 8 9
15 9 36
15 10 24
15 11 30
15 12 56
15 13 31
15 14 47
16 0 25
16 1 55
16 2 15
16 3 31
16 4 14
16 5 30
16 6 12
16 7 4
16 8 24
16 9 1
16 10 57
16 11 27
16 12 2
16 13 37
16 14 4
16 15 10
17 0 41
17 1 58
17 2 34
17 3 43
17 4 55
17 5 37
17 6 24
17 7 10
17 8 43
17 9 50
17 10 32
17 11 12
17 12 17
17 13 36
17 14 45
17 15 32
17 16 46
18 0 27
18 1 43
18 2 2
18 3 58
18 4 35
18 5 5
18 6 3
18 7 54
18 8 46
18 9 26
18 10 51
18 11 47
18 12 24
18 13 11
18 14 48
18 15 13
18 16 6
18 17 16
19 0 49
19 1 5
19 2 47
19 3 42
19 4 40
19 5 41
19 6 47
19 7 24
19 8 23
19 9 28
19 10 32
19 11 23
19 12 35
19 13 28
19 14 8
19 15 43
19 16 12
19 17 15
19 18 35
20 0 36
20 1 13
20 2 40
20 3 36
20 4 21
20 5 57
20 6 27
20 7 14
20 8 28
20 9 47
20 10 40
20 11 30
20 12 52
20 13 3
20 14 38
20 15 27
20 16 1
20 17 2
20 18 50
20 19 39
21 0 13
21 1 7
21 2 33
21 3 8
21 4 4
21 5 18
21 6 46
21 7 38
21 8 7
21 9 41
21 10 19
21 11 29
21 12 14
21 13 57
21 14 9
21 15 17
21 16 3
21 17 41
21 18 35
21 19 25
21 20 22
22 0 54
22 1 44
22 2 15
22 3 9
22 4 40
22 5 17
22 6 3
22 7 19
22 8 8
22 9 28
22 10 18
22 11 17
22 12 23
22 13 10
22 14 7
22 15 11
22 16 38
22 17 12
22 18 26
22 19 6
22 20 45
22 21 1
